----Where X is the symbol of the atom that we would like to run the calculation on----

&CONTROL
    calculation = 'scf'
    title = 'Atom Model'
    verbosity = 'high'
    pseudo_dir = './pseudo/'
    outdir = './output/'
&END

&SYSTEM
    ibrav = 0
    nat = 1
    ntyp = 1
    ecutwfc = 40
    ecutrho = 160
    occupations = 'smearing'
    smearing = 'gaussian'
    degauss = 0.01
&END

&ELECTRONS
    electron_maxstep = 100
    mixing_beta = 0.7
    conv_thr = 1.0e-8
&END

&IONS
    ion_dynamics = 'bfgs'
&END

&CELL
    cell_dynamics = 'bfgs'
    press = 0.0
    press_conv_thr = 0.5
&END

ATOMIC_SPECIES
    X 10.0 X.pbe-n-rrkjus_psl.1.0.0.UPF

ATOMIC_POSITIONS {angstrom}
    X 0.0 0.0 0.0

K_POINTS {automatic}
    6 6 6 0 0 0
